instances/knapsack/discrete/knapsack_150_1.lp
\ Model knapsack_150_1
\ LP format - for model browsing. Use MPS format to capture full model detail.
\ Signature: 0x1d3d114bfbe69093
Minimize
  - 17 x[0] - 86 x[1] - 67 x[2] - 51 x[3] - 29 x[4] - 32 x[5] - 9 x[6]
   - 87 x[7] - 18 x[8] - 90 x[9] - 86 x[10] - 34 x[11] - 42 x[12]
   - 81 x[13] - 22 x[14] - 71 x[15] - 81 x[16] - 53 x[17] - 46 x[18]
   - 73 x[19] - 77 x[20] - 46 x[21] - 91 x[22] - 15 x[23] - 80 x[24]
   - 42 x[25] - 35 x[26] - 91 x[27] - 65 x[28] - 80 x[29] - 84 x[30]
   - 99 x[31] - 43 x[32] - 34 x[33] - 15 x[34] - 12 x[35] - 92 x[36]
   - 66 x[37] - 70 x[38] - 95 x[39] - 3 x[40] - 81 x[41] - 41 x[42]
   - 2 x[43] - 6 x[44] - 74 x[45] - 84 x[46] - 52 x[47] - 96 x[48]
   - 45 x[49] - 78 x[50] - 22 x[51] - 18 x[52] - 64 x[53] - 27 x[54]
   - 5 x[55] - 26 x[56] - 35 x[57] - 83 x[58] - 74 x[59] - 31 x[60]
   - 13 x[61] - 33 x[62] - x[63] - 50 x[64] - 92 x[65] - 20 x[66]
   - 65 x[67] - 60 x[68] - 21 x[69] - 32 x[70] - 46 x[71] - 24 x[72]
   - 85 x[73] - 46 x[74] - 85 x[75] - 13 x[76] - 96 x[77] - 19 x[78]
   - 99 x[79] - 14 x[80] - 17 x[81] - 69 x[82] - 5 x[83] - 52 x[84]
   - 36 x[85] - 97 x[86] - 2 x[87] - 11 x[88] - 38 x[89] - 53 x[90]
   - 61 x[91] - 69 x[92] - 36 x[93] - 27 x[94] - 34 x[95] - 76 x[96]
   - 39 x[97] - 60 x[98] - 88 x[99] - 12 x[100] - 21 x[101] - 2 x[102]
   - 33 x[103] - 46 x[104] - 30 x[105] - x[106] - 72 x[107] - 65 x[108]
   - 8 x[109] - 13 x[110] - x[111] - 89 x[112] - 19 x[113] - 13 x[114]
   - 64 x[115] - 38 x[116] - 20 x[117] - 17 x[118] - 18 x[119] - 77 x[120]
   - 18 x[121] - 9 x[122] - 62 x[123] - 23 x[124] - 72 x[125] - 36 x[126]
   - 41 x[127] - 71 x[128] - 88 x[129] - 90 x[130] - 94 x[131] - 99 x[132]
   - 22 x[133] - 85 x[134] - 71 x[135] - 16 x[136] - 49 x[137] - 10 x[138]
   - 81 x[139] - 57 x[140] - 60 x[141] - 89 x[142] - 11 x[143] - 47 x[144]
   - 58 x[145] - 56 x[146] - 86 x[147] - 64 x[148] - 22 x[149]
Subject To
 primal_upper: 95 x[0] + 51 x[1] + 57 x[2] + 66 x[3] + 47 x[4] + 9 x[5]
   + 40 x[6] + 19 x[7] + 28 x[8] + 85 x[9] + 79 x[10] + 70 x[11] + 23 x[12]
   + 95 x[13] + 40 x[14] + 92 x[15] + 100 x[16] + 35 x[17] + 100 x[18]
   + 49 x[19] + 92 x[20] + 99 x[21] + 7 x[22] + 30 x[23] + 96 x[24]
   + 19 x[25] + 93 x[26] + 71 x[27] + 61 x[28] + 54 x[29] + 81 x[30]
   + 59 x[31] + 55 x[32] + 8 x[33] + 91 x[34] + 40 x[35] + 7 x[36]
   + 40 x[37] + 55 x[38] + 14 x[39] + 22 x[40] + 69 x[41] + 25 x[42]
   + 93 x[43] + 94 x[44] + 62 x[45] + 37 x[46] + 69 x[47] + 66 x[48]
   + 71 x[49] + 18 x[50] + 63 x[51] + 100 x[52] + 27 x[53] + 60 x[54]
   + 19 x[55] + 68 x[56] + 78 x[57] + 75 x[58] + 81 x[59] + 28 x[60]
   + 98 x[61] + 19 x[62] + 2 x[63] + 59 x[64] + 7 x[65] + 16 x[66]
   + 66 x[67] + 7 x[68] + 69 x[69] + 37 x[70] + 81 x[71] + 13 x[72]
   + 38 x[73] + 71 x[74] + 84 x[75] + 30 x[76] + 62 x[77] + 4 x[78]
   + 66 x[79] + 65 x[80] + 77 x[81] + 10 x[82] + 49 x[83] + 9 x[84]
   + 61 x[85] + 99 x[86] + 55 x[87] + 33 x[88] + 98 x[89] + 4 x[90]
   + 28 x[91] + 96 x[92] + 59 x[93] + 87 x[94] + 48 x[95] + 52 x[96]
   + 92 x[97] + 19 x[98] + 23 x[99] + 68 x[100] + 23 x[101] + 97 x[102]
   + 51 x[103] + 24 x[104] + 9 x[105] + 26 x[106] + 18 x[107] + 34 x[108]
   + 96 x[109] + 6 x[110] + 22 x[111] + 32 x[112] + 64 x[113] + 28 x[114]
   + 38 x[115] + 6 x[116] + 76 x[117] + 88 x[118] + 68 x[119] + 35 x[120]
   + 12 x[121] + 43 x[122] + 10 x[123] + 56 x[124] + 70 x[125] + 91 x[126]
   + 59 x[127] + 86 x[128] + 62 x[129] + 17 x[130] + 20 x[131] + 26 x[132]
   + 27 x[133] + 56 x[134] + 85 x[135] + 80 x[136] + 26 x[137] + 61 x[138]
   + 35 x[139] + 30 x[140] + 20 x[141] + 58 x[142] + 34 x[143] + 12 x[144]
   + 29 x[145] + 85 x[146] + 74 x[147] + 100 x[148] + 65 x[149] + 9.5 r[0]
   + 5.1 r[1] + 5.7 r[2] + 6.6 r[3] + 4.7 r[4] + 0.9 r[5] + 4 r[6]
   + 1.9 r[7] + 2.8 r[8] + 8.5 r[9] + 7.9 r[10] + 7 r[11] + 2.3 r[12]
   + 9.5 r[13] + 4 r[14] + 9.2 r[15] + 10 r[16] + 3.5 r[17] + 10 r[18]
   + 4.9 r[19] + 9.2 r[20] + 9.9 r[21] + 0.7 r[22] + 3 r[23] + 9.6 r[24]
   + 1.9 r[25] + 9.3 r[26] + 7.1 r[27] + 6.1 r[28] + 5.4 r[29] + 8.1 r[30]
   + 5.9 r[31] + 5.5 r[32] + 0.8 r[33] + 9.1 r[34] + 4 r[35] + 0.7 r[36]
   + 4 r[37] + 5.5 r[38] + 1.4 r[39] + 2.2 r[40] + 6.9 r[41] + 2.5 r[42]
   + 9.3 r[43] + 9.4 r[44] + 6.2 r[45] + 3.7 r[46] + 6.9 r[47] + 6.6 r[48]
   + 7.1 r[49] + 1.8 r[50] + 6.3 r[51] + 10 r[52] + 2.7 r[53] + 6 r[54]
   + 1.9 r[55] + 6.8 r[56] + 7.8 r[57] + 7.5 r[58] + 8.1 r[59] + 2.8 r[60]
   + 9.8 r[61] + 1.9 r[62] + 0.2 r[63] + 5.9 r[64] + 0.7 r[65] + 1.6 r[66]
   + 6.6 r[67] + 0.7 r[68] + 6.9 r[69] + 3.7 r[70] + 8.1 r[71] + 1.3 r[72]
   + 3.8 r[73] + 7.1 r[74] + 8.4 r[75] + 3 r[76] + 6.2 r[77] + 0.4 r[78]
   + 6.6 r[79] + 6.5 r[80] + 7.7 r[81] + r[82] + 4.9 r[83] + 0.9 r[84]
   + 6.1 r[85] + 9.9 r[86] + 5.5 r[87] + 3.3 r[88] + 9.8 r[89] + 0.4 r[90]
   + 2.8 r[91] + 9.6 r[92] + 5.9 r[93] + 8.7 r[94] + 4.8 r[95] + 5.2 r[96]
   + 9.2 r[97] + 1.9 r[98] + 2.3 r[99] + 6.8 r[100] + 2.3 r[101]
   + 9.7 r[102] + 5.1 r[103] + 2.4 r[104] + 0.9 r[105] + 2.6 r[106]
   + 1.8 r[107] + 3.4 r[108] + 9.6 r[109] + 0.6 r[110] + 2.2 r[111]
   + 3.2 r[112] + 6.4 r[113] + 2.8 r[114] + 3.8 r[115] + 0.6 r[116]
   + 7.6 r[117] + 8.8 r[118] + 6.8 r[119] + 3.5 r[120] + 1.2 r[121]
   + 4.3 r[122] + r[123] + 5.6 r[124] + 7 r[125] + 9.1 r[126] + 5.9 r[127]
   + 8.6 r[128] + 6.2 r[129] + 1.7 r[130] + 2 r[131] + 2.6 r[132]
   + 2.7 r[133] + 5.6 r[134] + 8.5 r[135] + 8 r[136] + 2.6 r[137]
   + 6.1 r[138] + 3.5 r[139] + 3 r[140] + 2 r[141] + 5.8 r[142]
   + 3.4 r[143] + 1.2 r[144] + 2.9 r[145] + 8.5 r[146] + 7.4 r[147]
   + 10 r[148] + 6.5 r[149] <= 734
 primal_lower: 0.4522229002396901 x[0] + 2.288780885203178 x[1]
   + 2.82582059016852 x[2] + 2.73712743509698 x[3] + 2.379821837748458 x[4]
   + 0.6966610767484327 x[5] + 2.834345230195368 x[6]
   + 0.2898793449710689 x[7] + 4.661693046979429 x[8]
   + 0.7996031188299869 x[9] + 2.744476183826202 x[10]
   + 1.803624602526429 x[11] + 2.595611829012626 x[12]
   + 1.337736544486863 x[13] + 2.923624564540205 x[14]
   + 2.088431712223587 x[15] + 0.8755591797907728 x[16]
   + 0.2123609177529958 x[17] + 1.463213254932719 x[18]
   + 3.99503709502424 x[19] + 2.579962716367815 x[20]
   + 4.38215819897452 x[21] + 4.750117635012765 x[22]
   + 0.9302066920253645 x[23] + 1.692913681415101 x[24]
   + 4.005602145094363 x[25] + 3.025063863157365 x[26]
   + 2.434312266482583 x[27] + 2.112737289593142 x[28]
   + 2.617531469571406 x[29] + 1.362405435163625 x[30]
   + 3.840379182164783 x[31] + 0.3266549778192134 x[32]
   + 3.114325474039484 x[33] + 0.438051876486483 x[34]
   + 3.371589066091581 x[35] + 4.037158080010923 x[36]
   + 3.681357496675091 x[37] + 2.797838048062175 x[38]
   + 4.65752363271025 x[39] + 1.590958369314572 x[40]
   + 0.4758789776875447 x[41] + 1.531484177360992 x[42]
   + 1.719078992513489 x[43] + 4.401114120405149 x[44]
   + 4.206406720306194 x[45] + 1.237720061959347 x[46]
   + 1.406714412770499 x[47] + 2.692442478142967 x[48]
   + 1.88037869024386 x[49] + 0.4703839265081219 x[50]
   + 1.93823695953618 x[51] + 0.7774197483685908 x[52]
   + 1.064267460786047 x[53] + 2.351058572588891 x[54]
   + 1.803473470094493 x[55] + 4.344877433181381 x[56]
   + 2.510588835644577 x[57] + 1.032758799099432 x[58]
   + 1.138268382859042 x[59] + 0.0459636327054165 x[60]
   + 0.9933478879101305 x[61] + 1.39275025996164 x[62]
   + 4.201354927977458 x[63] + 3.760871156847135 x[64]
   + 2.048143182651954 x[65] + 2.123146860404378 x[66]
   + 2.314820896618002 x[67] + 4.25067857859555 x[68]
   + 3.564180119785109 x[69] + 1.633272582315461 x[70]
   + 1.303444307018771 x[71] + 3.08843883071019 x[72]
   + 0.7525323047187304 x[73] + 0.2093669170160262 x[74]
   + 3.631191142267673 x[75] + 2.438412346044542 x[76]
   + 1.968152818388637 x[77] + 4.439502023183955 x[78]
   + 4.527377925104572 x[79] + 1.104132126451529 x[80]
   + 2.950310314099098 x[81] + 0.0807556292571919 x[82]
   + 1.809868490585977 x[83] + 1.984586474368495 x[84]
   + 1.273539855437406 x[85] + 3.767890903592226 x[86]
   + 2.966199947756752 x[87] + 2.95050386473757 x[88]
   + 3.798717553675537 x[89] + 2.058052433247313 x[90]
   + 3.690312822390144 x[91] + 0.9085404786456945 x[92]
   + 0.0376461257308405 x[93] + 1.669178700586006 x[94]
   + 3.251989983557312 x[95] + 0.8720452245487512 x[96]
   + 4.196224796141679 x[97] + 3.641729868809172 x[98]
   + 4.527261241005943 x[99] + 2.504369181539711 x[100]
   + 0.4156211500712325 x[101] + 1.527311060177277 x[102]
   + 0.1319316188953976 x[103] + 2.075984126036542 x[104]
   + 1.866488972321244 x[105] + 2.044433694527109 x[106]
   + 3.65971579375357 x[107] + 1.299782174690083 x[108]
   + 0.9444446824056734 x[109] + 4.383708016570497 x[110]
   + 3.253570745836655 x[111] + 2.407267476857045 x[112]
   + 3.100571326405961 x[113] + 2.975856944511603 x[114]
   + 3.946071055689624 x[115] + 0.938953806661744 x[116]
   + 1.664702673728901 x[117] + 0.3029945394453362 x[118]
   + 1.243286216659706 x[119] + 1.74204198012205 x[120]
   + 1.825447526067536 x[121] + 3.792424643447942 x[122]
   + 1.385980049621654 x[123] + 2.181957841182952 x[124]
   + 4.061002390223371 x[125] + 1.970231734452523 x[126]
   + 3.767179527330329 x[127] + 4.557821116401097 x[128]
   + 4.252217890907541 x[129] + 1.474586208608901 x[130]
   + 3.795166067035705 x[131] + 3.811397485216592 x[132]
   + 2.426684698017225 x[133] + 2.846752185659765 x[134]
   + 0.5314211348584766 x[135] + 4.727322897715165 x[136]
   + 3.056881283669556 x[137] + 4.256099924142187 x[138]
   + 1.927672241109623 x[139] + 2.003592654309093 x[140]
   + 0.4775102468556141 x[141] + 0.7253633551254549 x[142]
   + 0.3883401232407545 x[143] + 3.144111631410291 x[144]
   + 4.36046358398635 x[145] + 3.592705226532324 x[146]
   + 1.707067289721952 x[147] + 3.297836559403812 x[148]
   + 3.027127274611612 x[149] + 35 u[0] + 71 u[1] + 93 u[2] + 26 u[3]
   + 55 u[4] + 53 u[5] + 24 u[6] + 75 u[7] + 60 u[8] + 97 u[9] + 95 u[10]
   + 46 u[11] + 75 u[12] + 83 u[13] + 80 u[14] + 84 u[15] + 68 u[16]
   + 19 u[17] + 12 u[18] + 25 u[19] + 84 u[20] + 91 u[21] + 43 u[22]
   + 90 u[23] + 40 u[24] + 95 u[25] + 65 u[26] + 19 u[27] + 73 u[28]
   + 34 u[29] + 57 u[30] + 59 u[31] + 83 u[32] + 44 u[33] + 83 u[34]
   + 76 u[35] + 79 u[36] + 88 u[37] + 3 u[38] + 94 u[39] + 2 u[40]
   + 37 u[41] + 45 u[42] + 73 u[43] + 22 u[44] + 70 u[45] + 41 u[46]
   + 37 u[47] + 50 u[48] + 39 u[49] + 42 u[50] + 23 u[51] + 68 u[52]
   + 35 u[53] + 52 u[54] + 11 u[55] + 4 u[56] + 42 u[57] + 59 u[58]
   + 93 u[59] + 8 u[60] + 2 u[61] + 71 u[62] + 62 u[63] + 23 u[64]
   + 95 u[65] + 32 u[66] + 14 u[67] + 11 u[68] + 97 u[69] + 53 u[70]
   + 21 u[71] + 77 u[72] + 18 u[73] + 11 u[74] + 52 u[75] + 10 u[76]
   + 54 u[77] + 32 u[78] + 22 u[79] + 9 u[80] + 73 u[81] + 22 u[82]
   + 53 u[83] + 57 u[84] + 93 u[85] + 83 u[86] + 51 u[87] + 77 u[88]
   + 14 u[89] + 56 u[90] + 40 u[91] + 60 u[92] + 19 u[93] + 55 u[94]
   + 92 u[95] + 92 u[96] + 12 u[97] + 31 u[98] + 79 u[99] + 92 u[100]
   + 23 u[101] + u[102] + 39 u[103] + 92 u[104] + 21 u[105] + 30 u[106]
   + 50 u[107] + 66 u[108] + 32 u[109] + 82 u[110] + 14 u[111] + 8 u[112]
   + 28 u[113] + 24 u[114] + 6 u[115] + 78 u[116] + 100 u[117] + 84 u[118]
   + 92 u[119] + 83 u[120] + 20 u[121] + 59 u[122] + 18 u[123] + 40 u[124]
   + 10 u[125] + 75 u[126] + 79 u[127] + 54 u[128] + 74 u[129] + 5 u[130]
   + 4 u[131] + 66 u[132] + 59 u[133] + 12 u[134] + 49 u[135] + 36 u[136]
   + 54 u[137] + 93 u[138] + 35 u[139] + 18 u[140] + 68 u[141] + 42 u[142]
   + 98 u[143] + 24 u[144] + 89 u[145] + 37 u[146] + 82 u[147] + 56 u[148]
   + 29 u[149] <= 33512
 mccormick1[0]: - u[0] + r[0] <= 0
 mccormick1[1]: - u[1] + r[1] <= 0
 mccormick1[2]: - u[2] + r[2] <= 0
 mccormick1[3]: - u[3] + r[3] <= 0
 mccormick1[4]: - u[4] + r[4] <= 0
 mccormick1[5]: - u[5] + r[5] <= 0
 mccormick1[6]: - u[6] + r[6] <= 0
 mccormick1[7]: - u[7] + r[7] <= 0
 mccormick1[8]: - u[8] + r[8] <= 0
 mccormick1[9]: - u[9] + r[9] <= 0
 mccormick1[10]: - u[10] + r[10] <= 0
 mccormick1[11]: - u[11] + r[11] <= 0
 mccormick1[12]: - u[12] + r[12] <= 0
 mccormick1[13]: - u[13] + r[13] <= 0
 mccormick1[14]: - u[14] + r[14] <= 0
 mccormick1[15]: - u[15] + r[15] <= 0
 mccormick1[16]: - u[16] + r[16] <= 0
 mccormick1[17]: - u[17] + r[17] <= 0
 mccormick1[18]: - u[18] + r[18] <= 0
 mccormick1[19]: - u[19] + r[19] <= 0
 mccormick1[20]: - u[20] + r[20] <= 0
 mccormick1[21]: - u[21] + r[21] <= 0
 mccormick1[22]: - u[22] + r[22] <= 0
 mccormick1[23]: - u[23] + r[23] <= 0
 mccormick1[24]: - u[24] + r[24] <= 0
 mccormick1[25]: - u[25] + r[25] <= 0
 mccormick1[26]: - u[26] + r[26] <= 0
 mccormick1[27]: - u[27] + r[27] <= 0
 mccormick1[28]: - u[28] + r[28] <= 0
 mccormick1[29]: - u[29] + r[29] <= 0
 mccormick1[30]: - u[30] + r[30] <= 0
 mccormick1[31]: - u[31] + r[31] <= 0
 mccormick1[32]: - u[32] + r[32] <= 0
 mccormick1[33]: - u[33] + r[33] <= 0
 mccormick1[34]: - u[34] + r[34] <= 0
 mccormick1[35]: - u[35] + r[35] <= 0
 mccormick1[36]: - u[36] + r[36] <= 0
 mccormick1[37]: - u[37] + r[37] <= 0
 mccormick1[38]: - u[38] + r[38] <= 0
 mccormick1[39]: - u[39] + r[39] <= 0
 mccormick1[40]: - u[40] + r[40] <= 0
 mccormick1[41]: - u[41] + r[41] <= 0
 mccormick1[42]: - u[42] + r[42] <= 0
 mccormick1[43]: - u[43] + r[43] <= 0
 mccormick1[44]: - u[44] + r[44] <= 0
 mccormick1[45]: - u[45] + r[45] <= 0
 mccormick1[46]: - u[46] + r[46] <= 0
 mccormick1[47]: - u[47] + r[47] <= 0
 mccormick1[48]: - u[48] + r[48] <= 0
 mccormick1[49]: - u[49] + r[49] <= 0
 mccormick1[50]: - u[50] + r[50] <= 0
 mccormick1[51]: - u[51] + r[51] <= 0
 mccormick1[52]: - u[52] + r[52] <= 0
 mccormick1[53]: - u[53] + r[53] <= 0
 mccormick1[54]: - u[54] + r[54] <= 0
 mccormick1[55]: - u[55] + r[55] <= 0
 mccormick1[56]: - u[56] + r[56] <= 0
 mccormick1[57]: - u[57] + r[57] <= 0
 mccormick1[58]: - u[58] + r[58] <= 0
 mccormick1[59]: - u[59] + r[59] <= 0
 mccormick1[60]: - u[60] + r[60] <= 0
 mccormick1[61]: - u[61] + r[61] <= 0
 mccormick1[62]: - u[62] + r[62] <= 0
 mccormick1[63]: - u[63] + r[63] <= 0
 mccormick1[64]: - u[64] + r[64] <= 0
 mccormick1[65]: - u[65] + r[65] <= 0
 mccormick1[66]: - u[66] + r[66] <= 0
 mccormick1[67]: - u[67] + r[67] <= 0
 mccormick1[68]: - u[68] + r[68] <= 0
 mccormick1[69]: - u[69] + r[69] <= 0
 mccormick1[70]: - u[70] + r[70] <= 0
 mccormick1[71]: - u[71] + r[71] <= 0
 mccormick1[72]: - u[72] + r[72] <= 0
 mccormick1[73]: - u[73] + r[73] <= 0
 mccormick1[74]: - u[74] + r[74] <= 0
 mccormick1[75]: - u[75] + r[75] <= 0
 mccormick1[76]: - u[76] + r[76] <= 0
 mccormick1[77]: - u[77] + r[77] <= 0
 mccormick1[78]: - u[78] + r[78] <= 0
 mccormick1[79]: - u[79] + r[79] <= 0
 mccormick1[80]: - u[80] + r[80] <= 0
 mccormick1[81]: - u[81] + r[81] <= 0
 mccormick1[82]: - u[82] + r[82] <= 0
 mccormick1[83]: - u[83] + r[83] <= 0
 mccormick1[84]: - u[84] + r[84] <= 0
 mccormick1[85]: - u[85] + r[85] <= 0
 mccormick1[86]: - u[86] + r[86] <= 0
 mccormick1[87]: - u[87] + r[87] <= 0
 mccormick1[88]: - u[88] + r[88] <= 0
 mccormick1[89]: - u[89] + r[89] <= 0
 mccormick1[90]: - u[90] + r[90] <= 0
 mccormick1[91]: - u[91] + r[91] <= 0
 mccormick1[92]: - u[92] + r[92] <= 0
 mccormick1[93]: - u[93] + r[93] <= 0
 mccormick1[94]: - u[94] + r[94] <= 0
 mccormick1[95]: - u[95] + r[95] <= 0
 mccormick1[96]: - u[96] + r[96] <= 0
 mccormick1[97]: - u[97] + r[97] <= 0
 mccormick1[98]: - u[98] + r[98] <= 0
 mccormick1[99]: - u[99] + r[99] <= 0
 mccormick1[100]: - u[100] + r[100] <= 0
 mccormick1[101]: - u[101] + r[101] <= 0
 mccormick1[102]: - u[102] + r[102] <= 0
 mccormick1[103]: - u[103] + r[103] <= 0
 mccormick1[104]: - u[104] + r[104] <= 0
 mccormick1[105]: - u[105] + r[105] <= 0
 mccormick1[106]: - u[106] + r[106] <= 0
 mccormick1[107]: - u[107] + r[107] <= 0
 mccormick1[108]: - u[108] + r[108] <= 0
 mccormick1[109]: - u[109] + r[109] <= 0
 mccormick1[110]: - u[110] + r[110] <= 0
 mccormick1[111]: - u[111] + r[111] <= 0
 mccormick1[112]: - u[112] + r[112] <= 0
 mccormick1[113]: - u[113] + r[113] <= 0
 mccormick1[114]: - u[114] + r[114] <= 0
 mccormick1[115]: - u[115] + r[115] <= 0
 mccormick1[116]: - u[116] + r[116] <= 0
 mccormick1[117]: - u[117] + r[117] <= 0
 mccormick1[118]: - u[118] + r[118] <= 0
 mccormick1[119]: - u[119] + r[119] <= 0
 mccormick1[120]: - u[120] + r[120] <= 0
 mccormick1[121]: - u[121] + r[121] <= 0
 mccormick1[122]: - u[122] + r[122] <= 0
 mccormick1[123]: - u[123] + r[123] <= 0
 mccormick1[124]: - u[124] + r[124] <= 0
 mccormick1[125]: - u[125] + r[125] <= 0
 mccormick1[126]: - u[126] + r[126] <= 0
 mccormick1[127]: - u[127] + r[127] <= 0
 mccormick1[128]: - u[128] + r[128] <= 0
 mccormick1[129]: - u[129] + r[129] <= 0
 mccormick1[130]: - u[130] + r[130] <= 0
 mccormick1[131]: - u[131] + r[131] <= 0
 mccormick1[132]: - u[132] + r[132] <= 0
 mccormick1[133]: - u[133] + r[133] <= 0
 mccormick1[134]: - u[134] + r[134] <= 0
 mccormick1[135]: - u[135] + r[135] <= 0
 mccormick1[136]: - u[136] + r[136] <= 0
 mccormick1[137]: - u[137] + r[137] <= 0
 mccormick1[138]: - u[138] + r[138] <= 0
 mccormick1[139]: - u[139] + r[139] <= 0
 mccormick1[140]: - u[140] + r[140] <= 0
 mccormick1[141]: - u[141] + r[141] <= 0
 mccormick1[142]: - u[142] + r[142] <= 0
 mccormick1[143]: - u[143] + r[143] <= 0
 mccormick1[144]: - u[144] + r[144] <= 0
 mccormick1[145]: - u[145] + r[145] <= 0
 mccormick1[146]: - u[146] + r[146] <= 0
 mccormick1[147]: - u[147] + r[147] <= 0
 mccormick1[148]: - u[148] + r[148] <= 0
 mccormick1[149]: - u[149] + r[149] <= 0
 mccormick2[0]: - x[0] + r[0] <= 0
 mccormick2[1]: - x[1] + r[1] <= 0
 mccormick2[2]: - x[2] + r[2] <= 0
 mccormick2[3]: - x[3] + r[3] <= 0
 mccormick2[4]: - x[4] + r[4] <= 0
 mccormick2[5]: - x[5] + r[5] <= 0
 mccormick2[6]: - x[6] + r[6] <= 0
 mccormick2[7]: - x[7] + r[7] <= 0
 mccormick2[8]: - x[8] + r[8] <= 0
 mccormick2[9]: - x[9] + r[9] <= 0
 mccormick2[10]: - x[10] + r[10] <= 0
 mccormick2[11]: - x[11] + r[11] <= 0
 mccormick2[12]: - x[12] + r[12] <= 0
 mccormick2[13]: - x[13] + r[13] <= 0
 mccormick2[14]: - x[14] + r[14] <= 0
 mccormick2[15]: - x[15] + r[15] <= 0
 mccormick2[16]: - x[16] + r[16] <= 0
 mccormick2[17]: - x[17] + r[17] <= 0
 mccormick2[18]: - x[18] + r[18] <= 0
 mccormick2[19]: - x[19] + r[19] <= 0
 mccormick2[20]: - x[20] + r[20] <= 0
 mccormick2[21]: - x[21] + r[21] <= 0
 mccormick2[22]: - x[22] + r[22] <= 0
 mccormick2[23]: - x[23] + r[23] <= 0
 mccormick2[24]: - x[24] + r[24] <= 0
 mccormick2[25]: - x[25] + r[25] <= 0
 mccormick2[26]: - x[26] + r[26] <= 0
 mccormick2[27]: - x[27] + r[27] <= 0
 mccormick2[28]: - x[28] + r[28] <= 0
 mccormick2[29]: - x[29] + r[29] <= 0
 mccormick2[30]: - x[30] + r[30] <= 0
 mccormick2[31]: - x[31] + r[31] <= 0
 mccormick2[32]: - x[32] + r[32] <= 0
 mccormick2[33]: - x[33] + r[33] <= 0
 mccormick2[34]: - x[34] + r[34] <= 0
 mccormick2[35]: - x[35] + r[35] <= 0
 mccormick2[36]: - x[36] + r[36] <= 0
 mccormick2[37]: - x[37] + r[37] <= 0
 mccormick2[38]: - x[38] + r[38] <= 0
 mccormick2[39]: - x[39] + r[39] <= 0
 mccormick2[40]: - x[40] + r[40] <= 0
 mccormick2[41]: - x[41] + r[41] <= 0
 mccormick2[42]: - x[42] + r[42] <= 0
 mccormick2[43]: - x[43] + r[43] <= 0
 mccormick2[44]: - x[44] + r[44] <= 0
 mccormick2[45]: - x[45] + r[45] <= 0
 mccormick2[46]: - x[46] + r[46] <= 0
 mccormick2[47]: - x[47] + r[47] <= 0
 mccormick2[48]: - x[48] + r[48] <= 0
 mccormick2[49]: - x[49] + r[49] <= 0
 mccormick2[50]: - x[50] + r[50] <= 0
 mccormick2[51]: - x[51] + r[51] <= 0
 mccormick2[52]: - x[52] + r[52] <= 0
 mccormick2[53]: - x[53] + r[53] <= 0
 mccormick2[54]: - x[54] + r[54] <= 0
 mccormick2[55]: - x[55] + r[55] <= 0
 mccormick2[56]: - x[56] + r[56] <= 0
 mccormick2[57]: - x[57] + r[57] <= 0
 mccormick2[58]: - x[58] + r[58] <= 0
 mccormick2[59]: - x[59] + r[59] <= 0
 mccormick2[60]: - x[60] + r[60] <= 0
 mccormick2[61]: - x[61] + r[61] <= 0
 mccormick2[62]: - x[62] + r[62] <= 0
 mccormick2[63]: - x[63] + r[63] <= 0
 mccormick2[64]: - x[64] + r[64] <= 0
 mccormick2[65]: - x[65] + r[65] <= 0
 mccormick2[66]: - x[66] + r[66] <= 0
 mccormick2[67]: - x[67] + r[67] <= 0
 mccormick2[68]: - x[68] + r[68] <= 0
 mccormick2[69]: - x[69] + r[69] <= 0
 mccormick2[70]: - x[70] + r[70] <= 0
 mccormick2[71]: - x[71] + r[71] <= 0
 mccormick2[72]: - x[72] + r[72] <= 0
 mccormick2[73]: - x[73] + r[73] <= 0
 mccormick2[74]: - x[74] + r[74] <= 0
 mccormick2[75]: - x[75] + r[75] <= 0
 mccormick2[76]: - x[76] + r[76] <= 0
 mccormick2[77]: - x[77] + r[77] <= 0
 mccormick2[78]: - x[78] + r[78] <= 0
 mccormick2[79]: - x[79] + r[79] <= 0
 mccormick2[80]: - x[80] + r[80] <= 0
 mccormick2[81]: - x[81] + r[81] <= 0
 mccormick2[82]: - x[82] + r[82] <= 0
 mccormick2[83]: - x[83] + r[83] <= 0
 mccormick2[84]: - x[84] + r[84] <= 0
 mccormick2[85]: - x[85] + r[85] <= 0
 mccormick2[86]: - x[86] + r[86] <= 0
 mccormick2[87]: - x[87] + r[87] <= 0
 mccormick2[88]: - x[88] + r[88] <= 0
 mccormick2[89]: - x[89] + r[89] <= 0
 mccormick2[90]: - x[90] + r[90] <= 0
 mccormick2[91]: - x[91] + r[91] <= 0
 mccormick2[92]: - x[92] + r[92] <= 0
 mccormick2[93]: - x[93] + r[93] <= 0
 mccormick2[94]: - x[94] + r[94] <= 0
 mccormick2[95]: - x[95] + r[95] <= 0
 mccormick2[96]: - x[96] + r[96] <= 0
 mccormick2[97]: - x[97] + r[97] <= 0
 mccormick2[98]: - x[98] + r[98] <= 0
 mccormick2[99]: - x[99] + r[99] <= 0
 mccormick2[100]: - x[100] + r[100] <= 0
 mccormick2[101]: - x[101] + r[101] <= 0
 mccormick2[102]: - x[102] + r[102] <= 0
 mccormick2[103]: - x[103] + r[103] <= 0
 mccormick2[104]: - x[104] + r[104] <= 0
 mccormick2[105]: - x[105] + r[105] <= 0
 mccormick2[106]: - x[106] + r[106] <= 0
 mccormick2[107]: - x[107] + r[107] <= 0
 mccormick2[108]: - x[108] + r[108] <= 0
 mccormick2[109]: - x[109] + r[109] <= 0
 mccormick2[110]: - x[110] + r[110] <= 0
 mccormick2[111]: - x[111] + r[111] <= 0
 mccormick2[112]: - x[112] + r[112] <= 0
 mccormick2[113]: - x[113] + r[113] <= 0
 mccormick2[114]: - x[114] + r[114] <= 0
 mccormick2[115]: - x[115] + r[115] <= 0
 mccormick2[116]: - x[116] + r[116] <= 0
 mccormick2[117]: - x[117] + r[117] <= 0
 mccormick2[118]: - x[118] + r[118] <= 0
 mccormick2[119]: - x[119] + r[119] <= 0
 mccormick2[120]: - x[120] + r[120] <= 0
 mccormick2[121]: - x[121] + r[121] <= 0
 mccormick2[122]: - x[122] + r[122] <= 0
 mccormick2[123]: - x[123] + r[123] <= 0
 mccormick2[124]: - x[124] + r[124] <= 0
 mccormick2[125]: - x[125] + r[125] <= 0
 mccormick2[126]: - x[126] + r[126] <= 0
 mccormick2[127]: - x[127] + r[127] <= 0
 mccormick2[128]: - x[128] + r[128] <= 0
 mccormick2[129]: - x[129] + r[129] <= 0
 mccormick2[130]: - x[130] + r[130] <= 0
 mccormick2[131]: - x[131] + r[131] <= 0
 mccormick2[132]: - x[132] + r[132] <= 0
 mccormick2[133]: - x[133] + r[133] <= 0
 mccormick2[134]: - x[134] + r[134] <= 0
 mccormick2[135]: - x[135] + r[135] <= 0
 mccormick2[136]: - x[136] + r[136] <= 0
 mccormick2[137]: - x[137] + r[137] <= 0
 mccormick2[138]: - x[138] + r[138] <= 0
 mccormick2[139]: - x[139] + r[139] <= 0
 mccormick2[140]: - x[140] + r[140] <= 0
 mccormick2[141]: - x[141] + r[141] <= 0
 mccormick2[142]: - x[142] + r[142] <= 0
 mccormick2[143]: - x[143] + r[143] <= 0
 mccormick2[144]: - x[144] + r[144] <= 0
 mccormick2[145]: - x[145] + r[145] <= 0
 mccormick2[146]: - x[146] + r[146] <= 0
 mccormick2[147]: - x[147] + r[147] <= 0
 mccormick2[148]: - x[148] + r[148] <= 0
 mccormick2[149]: - x[149] + r[149] <= 0
 mccormick3[0]: x[0] + u[0] - r[0] <= 1
 mccormick3[1]: x[1] + u[1] - r[1] <= 1
 mccormick3[2]: x[2] + u[2] - r[2] <= 1
 mccormick3[3]: x[3] + u[3] - r[3] <= 1
 mccormick3[4]: x[4] + u[4] - r[4] <= 1
 mccormick3[5]: x[5] + u[5] - r[5] <= 1
 mccormick3[6]: x[6] + u[6] - r[6] <= 1
 mccormick3[7]: x[7] + u[7] - r[7] <= 1
 mccormick3[8]: x[8] + u[8] - r[8] <= 1
 mccormick3[9]: x[9] + u[9] - r[9] <= 1
 mccormick3[10]: x[10] + u[10] - r[10] <= 1
 mccormick3[11]: x[11] + u[11] - r[11] <= 1
 mccormick3[12]: x[12] + u[12] - r[12] <= 1
 mccormick3[13]: x[13] + u[13] - r[13] <= 1
 mccormick3[14]: x[14] + u[14] - r[14] <= 1
 mccormick3[15]: x[15] + u[15] - r[15] <= 1
 mccormick3[16]: x[16] + u[16] - r[16] <= 1
 mccormick3[17]: x[17] + u[17] - r[17] <= 1
 mccormick3[18]: x[18] + u[18] - r[18] <= 1
 mccormick3[19]: x[19] + u[19] - r[19] <= 1
 mccormick3[20]: x[20] + u[20] - r[20] <= 1
 mccormick3[21]: x[21] + u[21] - r[21] <= 1
 mccormick3[22]: x[22] + u[22] - r[22] <= 1
 mccormick3[23]: x[23] + u[23] - r[23] <= 1
 mccormick3[24]: x[24] + u[24] - r[24] <= 1
 mccormick3[25]: x[25] + u[25] - r[25] <= 1
 mccormick3[26]: x[26] + u[26] - r[26] <= 1
 mccormick3[27]: x[27] + u[27] - r[27] <= 1
 mccormick3[28]: x[28] + u[28] - r[28] <= 1
 mccormick3[29]: x[29] + u[29] - r[29] <= 1
 mccormick3[30]: x[30] + u[30] - r[30] <= 1
 mccormick3[31]: x[31] + u[31] - r[31] <= 1
 mccormick3[32]: x[32] + u[32] - r[32] <= 1
 mccormick3[33]: x[33] + u[33] - r[33] <= 1
 mccormick3[34]: x[34] + u[34] - r[34] <= 1
 mccormick3[35]: x[35] + u[35] - r[35] <= 1
 mccormick3[36]: x[36] + u[36] - r[36] <= 1
 mccormick3[37]: x[37] + u[37] - r[37] <= 1
 mccormick3[38]: x[38] + u[38] - r[38] <= 1
 mccormick3[39]: x[39] + u[39] - r[39] <= 1
 mccormick3[40]: x[40] + u[40] - r[40] <= 1
 mccormick3[41]: x[41] + u[41] - r[41] <= 1
 mccormick3[42]: x[42] + u[42] - r[42] <= 1
 mccormick3[43]: x[43] + u[43] - r[43] <= 1
 mccormick3[44]: x[44] + u[44] - r[44] <= 1
 mccormick3[45]: x[45] + u[45] - r[45] <= 1
 mccormick3[46]: x[46] + u[46] - r[46] <= 1
 mccormick3[47]: x[47] + u[47] - r[47] <= 1
 mccormick3[48]: x[48] + u[48] - r[48] <= 1
 mccormick3[49]: x[49] + u[49] - r[49] <= 1
 mccormick3[50]: x[50] + u[50] - r[50] <= 1
 mccormick3[51]: x[51] + u[51] - r[51] <= 1
 mccormick3[52]: x[52] + u[52] - r[52] <= 1
 mccormick3[53]: x[53] + u[53] - r[53] <= 1
 mccormick3[54]: x[54] + u[54] - r[54] <= 1
 mccormick3[55]: x[55] + u[55] - r[55] <= 1
 mccormick3[56]: x[56] + u[56] - r[56] <= 1
 mccormick3[57]: x[57] + u[57] - r[57] <= 1
 mccormick3[58]: x[58] + u[58] - r[58] <= 1
 mccormick3[59]: x[59] + u[59] - r[59] <= 1
 mccormick3[60]: x[60] + u[60] - r[60] <= 1
 mccormick3[61]: x[61] + u[61] - r[61] <= 1
 mccormick3[62]: x[62] + u[62] - r[62] <= 1
 mccormick3[63]: x[63] + u[63] - r[63] <= 1
 mccormick3[64]: x[64] + u[64] - r[64] <= 1
 mccormick3[65]: x[65] + u[65] - r[65] <= 1
 mccormick3[66]: x[66] + u[66] - r[66] <= 1
 mccormick3[67]: x[67] + u[67] - r[67] <= 1
 mccormick3[68]: x[68] + u[68] - r[68] <= 1
 mccormick3[69]: x[69] + u[69] - r[69] <= 1
 mccormick3[70]: x[70] + u[70] - r[70] <= 1
 mccormick3[71]: x[71] + u[71] - r[71] <= 1
 mccormick3[72]: x[72] + u[72] - r[72] <= 1
 mccormick3[73]: x[73] + u[73] - r[73] <= 1
 mccormick3[74]: x[74] + u[74] - r[74] <= 1
 mccormick3[75]: x[75] + u[75] - r[75] <= 1
 mccormick3[76]: x[76] + u[76] - r[76] <= 1
 mccormick3[77]: x[77] + u[77] - r[77] <= 1
 mccormick3[78]: x[78] + u[78] - r[78] <= 1
 mccormick3[79]: x[79] + u[79] - r[79] <= 1
 mccormick3[80]: x[80] + u[80] - r[80] <= 1
 mccormick3[81]: x[81] + u[81] - r[81] <= 1
 mccormick3[82]: x[82] + u[82] - r[82] <= 1
 mccormick3[83]: x[83] + u[83] - r[83] <= 1
 mccormick3[84]: x[84] + u[84] - r[84] <= 1
 mccormick3[85]: x[85] + u[85] - r[85] <= 1
 mccormick3[86]: x[86] + u[86] - r[86] <= 1
 mccormick3[87]: x[87] + u[87] - r[87] <= 1
 mccormick3[88]: x[88] + u[88] - r[88] <= 1
 mccormick3[89]: x[89] + u[89] - r[89] <= 1
 mccormick3[90]: x[90] + u[90] - r[90] <= 1
 mccormick3[91]: x[91] + u[91] - r[91] <= 1
 mccormick3[92]: x[92] + u[92] - r[92] <= 1
 mccormick3[93]: x[93] + u[93] - r[93] <= 1
 mccormick3[94]: x[94] + u[94] - r[94] <= 1
 mccormick3[95]: x[95] + u[95] - r[95] <= 1
 mccormick3[96]: x[96] + u[96] - r[96] <= 1
 mccormick3[97]: x[97] + u[97] - r[97] <= 1
 mccormick3[98]: x[98] + u[98] - r[98] <= 1
 mccormick3[99]: x[99] + u[99] - r[99] <= 1
 mccormick3[100]: x[100] + u[100] - r[100] <= 1
 mccormick3[101]: x[101] + u[101] - r[101] <= 1
 mccormick3[102]: x[102] + u[102] - r[102] <= 1
 mccormick3[103]: x[103] + u[103] - r[103] <= 1
 mccormick3[104]: x[104] + u[104] - r[104] <= 1
 mccormick3[105]: x[105] + u[105] - r[105] <= 1
 mccormick3[106]: x[106] + u[106] - r[106] <= 1
 mccormick3[107]: x[107] + u[107] - r[107] <= 1
 mccormick3[108]: x[108] + u[108] - r[108] <= 1
 mccormick3[109]: x[109] + u[109] - r[109] <= 1
 mccormick3[110]: x[110] + u[110] - r[110] <= 1
 mccormick3[111]: x[111] + u[111] - r[111] <= 1
 mccormick3[112]: x[112] + u[112] - r[112] <= 1
 mccormick3[113]: x[113] + u[113] - r[113] <= 1
 mccormick3[114]: x[114] + u[114] - r[114] <= 1
 mccormick3[115]: x[115] + u[115] - r[115] <= 1
 mccormick3[116]: x[116] + u[116] - r[116] <= 1
 mccormick3[117]: x[117] + u[117] - r[117] <= 1
 mccormick3[118]: x[118] + u[118] - r[118] <= 1
 mccormick3[119]: x[119] + u[119] - r[119] <= 1
 mccormick3[120]: x[120] + u[120] - r[120] <= 1
 mccormick3[121]: x[121] + u[121] - r[121] <= 1
 mccormick3[122]: x[122] + u[122] - r[122] <= 1
 mccormick3[123]: x[123] + u[123] - r[123] <= 1
 mccormick3[124]: x[124] + u[124] - r[124] <= 1
 mccormick3[125]: x[125] + u[125] - r[125] <= 1
 mccormick3[126]: x[126] + u[126] - r[126] <= 1
 mccormick3[127]: x[127] + u[127] - r[127] <= 1
 mccormick3[128]: x[128] + u[128] - r[128] <= 1
 mccormick3[129]: x[129] + u[129] - r[129] <= 1
 mccormick3[130]: x[130] + u[130] - r[130] <= 1
 mccormick3[131]: x[131] + u[131] - r[131] <= 1
 mccormick3[132]: x[132] + u[132] - r[132] <= 1
 mccormick3[133]: x[133] + u[133] - r[133] <= 1
 mccormick3[134]: x[134] + u[134] - r[134] <= 1
 mccormick3[135]: x[135] + u[135] - r[135] <= 1
 mccormick3[136]: x[136] + u[136] - r[136] <= 1
 mccormick3[137]: x[137] + u[137] - r[137] <= 1
 mccormick3[138]: x[138] + u[138] - r[138] <= 1
 mccormick3[139]: x[139] + u[139] - r[139] <= 1
 mccormick3[140]: x[140] + u[140] - r[140] <= 1
 mccormick3[141]: x[141] + u[141] - r[141] <= 1
 mccormick3[142]: x[142] + u[142] - r[142] <= 1
 mccormick3[143]: x[143] + u[143] - r[143] <= 1
 mccormick3[144]: x[144] + u[144] - r[144] <= 1
 mccormick3[145]: x[145] + u[145] - r[145] <= 1
 mccormick3[146]: x[146] + u[146] - r[146] <= 1
 mccormick3[147]: x[147] + u[147] - r[147] <= 1
 mccormick3[148]: x[148] + u[148] - r[148] <= 1
 mccormick3[149]: x[149] + u[149] - r[149] <= 1
Bounds
Binaries
 x[0] x[1] x[2] x[3] x[4] x[5] x[6] x[7] x[8] x[9] x[10] x[11] x[12] x[13]
 x[14] x[15] x[16] x[17] x[18] x[19] x[20] x[21] x[22] x[23] x[24] x[25]
 x[26] x[27] x[28] x[29] x[30] x[31] x[32] x[33] x[34] x[35] x[36] x[37]
 x[38] x[39] x[40] x[41] x[42] x[43] x[44] x[45] x[46] x[47] x[48] x[49]
 x[50] x[51] x[52] x[53] x[54] x[55] x[56] x[57] x[58] x[59] x[60] x[61]
 x[62] x[63] x[64] x[65] x[66] x[67] x[68] x[69] x[70] x[71] x[72] x[73]
 x[74] x[75] x[76] x[77] x[78] x[79] x[80] x[81] x[82] x[83] x[84] x[85]
 x[86] x[87] x[88] x[89] x[90] x[91] x[92] x[93] x[94] x[95] x[96] x[97]
 x[98] x[99] x[100] x[101] x[102] x[103] x[104] x[105] x[106] x[107] x[108]
 x[109] x[110] x[111] x[112] x[113] x[114] x[115] x[116] x[117] x[118]
 x[119] x[120] x[121] x[122] x[123] x[124] x[125] x[126] x[127] x[128]
 x[129] x[130] x[131] x[132] x[133] x[134] x[135] x[136] x[137] x[138]
 x[139] x[140] x[141] x[142] x[143] x[144] x[145] x[146] x[147] x[148]
 x[149] u[0] u[1] u[2] u[3] u[4] u[5] u[6] u[7] u[8] u[9] u[10] u[11] u[12]
 u[13] u[14] u[15] u[16] u[17] u[18] u[19] u[20] u[21] u[22] u[23] u[24]
 u[25] u[26] u[27] u[28] u[29] u[30] u[31] u[32] u[33] u[34] u[35] u[36]
 u[37] u[38] u[39] u[40] u[41] u[42] u[43] u[44] u[45] u[46] u[47] u[48]
 u[49] u[50] u[51] u[52] u[53] u[54] u[55] u[56] u[57] u[58] u[59] u[60]
 u[61] u[62] u[63] u[64] u[65] u[66] u[67] u[68] u[69] u[70] u[71] u[72]
 u[73] u[74] u[75] u[76] u[77] u[78] u[79] u[80] u[81] u[82] u[83] u[84]
 u[85] u[86] u[87] u[88] u[89] u[90] u[91] u[92] u[93] u[94] u[95] u[96]
 u[97] u[98] u[99] u[100] u[101] u[102] u[103] u[104] u[105] u[106] u[107]
 u[108] u[109] u[110] u[111] u[112] u[113] u[114] u[115] u[116] u[117]
 u[118] u[119] u[120] u[121] u[122] u[123] u[124] u[125] u[126] u[127]
 u[128] u[129] u[130] u[131] u[132] u[133] u[134] u[135] u[136] u[137]
 u[138] u[139] u[140] u[141] u[142] u[143] u[144] u[145] u[146] u[147]
 u[148] u[149] r[0] r[1] r[2] r[3] r[4] r[5] r[6] r[7] r[8] r[9] r[10]
 r[11] r[12] r[13] r[14] r[15] r[16] r[17] r[18] r[19] r[20] r[21] r[22]
 r[23] r[24] r[25] r[26] r[27] r[28] r[29] r[30] r[31] r[32] r[33] r[34]
 r[35] r[36] r[37] r[38] r[39] r[40] r[41] r[42] r[43] r[44] r[45] r[46]
 r[47] r[48] r[49] r[50] r[51] r[52] r[53] r[54] r[55] r[56] r[57] r[58]
 r[59] r[60] r[61] r[62] r[63] r[64] r[65] r[66] r[67] r[68] r[69] r[70]
 r[71] r[72] r[73] r[74] r[75] r[76] r[77] r[78] r[79] r[80] r[81] r[82]
 r[83] r[84] r[85] r[86] r[87] r[88] r[89] r[90] r[91] r[92] r[93] r[94]
 r[95] r[96] r[97] r[98] r[99] r[100] r[101] r[102] r[103] r[104] r[105]
 r[106] r[107] r[108] r[109] r[110] r[111] r[112] r[113] r[114] r[115]
 r[116] r[117] r[118] r[119] r[120] r[121] r[122] r[123] r[124] r[125]
 r[126] r[127] r[128] r[129] r[130] r[131] r[132] r[133] r[134] r[135]
 r[136] r[137] r[138] r[139] r[140] r[141] r[142] r[143] r[144] r[145]
 r[146] r[147] r[148] r[149]
End
