instances/knapsack/discrete/knapsack_150_1.kp
66272
150
734

95 9.5 17
51 5.1 86
57 5.7 67
66 6.6 51
47 4.7 29
9 0.9 32
40 4.0 9
19 1.9 87
28 2.8 18
85 8.5 90
79 7.9 86
70 7.0 34
23 2.3 42
95 9.5 81
40 4.0 22
92 9.2 71
100 10.0 81
35 3.5 53
100 10.0 46
49 4.9 73
92 9.2 77
99 9.9 46
7 0.7 91
30 3.0 15
96 9.6 80
19 1.9 42
93 9.3 35
71 7.1 91
61 6.1 65
54 5.4 80
81 8.1 84
59 5.9 99
55 5.5 43
8 0.8 34
91 9.1 15
40 4.0 12
7 0.7 92
40 4.0 66
55 5.5 70
14 1.4 95
22 2.2 3
69 6.9 81
25 2.5 41
93 9.3 2
94 9.4 6
62 6.2 74
37 3.7 84
69 6.9 52
66 6.6 96
71 7.1 45
18 1.8 78
63 6.3 22
100 10.0 18
27 2.7 64
60 6.0 27
19 1.9 5
68 6.8 26
78 7.8 35
75 7.5 83
81 8.1 74
28 2.8 31
98 9.8 13
19 1.9 33
2 0.2 1
59 5.9 50
7 0.7 92
16 1.6 20
66 6.6 65
7 0.7 60
69 6.9 21
37 3.7 32
81 8.1 46
13 1.3 24
38 3.8 85
71 7.1 46
84 8.4 85
30 3.0 13
62 6.2 96
4 0.4 19
66 6.6 99
65 6.5 14
77 7.7 17
10 1.0 69
49 4.9 5
9 0.9 52
61 6.1 36
99 9.9 97
55 5.5 2
33 3.3 11
98 9.8 38
4 0.4 53
28 2.8 61
96 9.6 69
59 5.9 36
87 8.7 27
48 4.8 34
52 5.2 76
92 9.2 39
19 1.9 60
23 2.3 88
68 6.8 12
23 2.3 21
97 9.7 2
51 5.1 33
24 2.4 46
9 0.9 30
26 2.6 1
18 1.8 72
34 3.4 65
96 9.6 8
6 0.6 13
22 2.2 1
32 3.2 89
64 6.4 19
28 2.8 13
38 3.8 64
6 0.6 38
76 7.6 20
88 8.8 17
68 6.8 18
35 3.5 77
12 1.2 18
43 4.3 9
10 1.0 62
56 5.6 23
70 7.0 72
91 9.1 36
59 5.9 41
86 8.6 71
62 6.2 88
17 1.7 90
20 2.0 94
26 2.6 99
27 2.7 22
56 5.6 85
85 8.5 71
80 8.0 16
26 2.6 49
61 6.1 10
35 3.5 81
30 3.0 57
20 2.0 60
58 5.8 89
34 3.4 11
12 1.2 47
29 2.9 58
85 8.5 56
74 7.4 86
100 10.0 64
65 6.5 22

33512
722

[0.45222290023969014 2.2887808852031784 2.82582059016852 2.7371274350969803 2.379821837748458 0.6966610767484327 2.834345230195368 0.2898793449710689 4.661693046979429 0.7996031188299869 2.7444761838262015 1.8036246025264286 2.595611829012626 1.3377365444868627 2.923624564540205 2.0884317122235867 0.8755591797907728 0.2123609177529958 1.4632132549327186 3.9950370950242395 2.579962716367815 4.38215819897452 4.750117635012765 0.9302066920253645 1.692913681415101 4.005602145094363 3.0250638631573645 2.4343122664825834 2.112737289593142 2.6175314695714063 1.3624054351636248 3.8403791821647832 0.32665497781921343 3.1143254740394837 0.438051876486483 3.371589066091581 4.037158080010923 3.6813574966750915 2.7978380480621747 4.65752363271025 1.5909583693145721 0.4758789776875447 1.531484177360992 1.7190789925134888 4.401114120405149 4.206406720306194 1.2377200619593467 1.4067144127704994 2.6924424781429668 1.8803786902438602 0.4703839265081219 1.9382369595361801 0.7774197483685908 1.064267460786047 2.3510585725888906 1.8034734700944928 4.344877433181381 2.510588835644577 1.032758799099432 1.1382683828590419 0.04596363270541653 0.9933478879101305 1.3927502599616397 4.201354927977458 3.760871156847135 2.048143182651954 2.123146860404378 2.314820896618002 4.25067857859555 3.564180119785109 1.6332725823154615 1.3034443070187713 3.0884388307101904 0.7525323047187304 0.20936691701602622 3.631191142267673 2.438412346044542 1.9681528183886368 4.439502023183955 4.527377925104572 1.1041321264515294 2.950310314099098 0.08075562925719192 1.8098684905859765 1.9845864743684947 1.273539855437406 3.7678909035922263 2.9661999477567518 2.95050386473757 3.798717553675537 2.058052433247313 3.6903128223901445 0.9085404786456945 0.03764612573084053 1.6691787005860057 3.2519899835573116 0.8720452245487512 4.196224796141679 3.6417298688091724 4.5272612410059425 2.504369181539711 0.41562115007123246 1.5273110601772766 0.13193161889539765 2.075984126036542 1.866488972321244 2.044433694527109 3.65971579375357 1.2997821746900826 0.9444446824056734 4.383708016570497 3.2535707458366554 2.407267476857045 3.1005713264059613 2.9758569445116025 3.946071055689624 0.938953806661744 1.6647026737289012 0.30299453944533616 1.243286216659706 1.74204198012205 1.8254475260675365 3.792424643447942 1.3859800496216537 2.181957841182952 4.061002390223371 1.9702317344525233 3.7671795273303292 4.557821116401097 4.2522178909075405 1.4745862086089012 3.7951660670357055 3.8113974852165917 2.426684698017225 2.8467521856597653 0.5314211348584766 4.727322897715165 3.056881283669556 4.256099924142187 1.9276722411096232 2.003592654309093 0.4775102468556141 0.7253633551254549 0.38834012324075445 3.144111631410291 4.36046358398635 3.5927052265323236 1.707067289721952 3.2978365594038124 3.0271272746116122]

[35 71 93 26 55 53 24 75 60 97 95 46 75 83 80 84 68 19 12 25 84 91 43 90 40 95 65 19 73 34 57 59 83 44 83 76 79 88 3 94 2 37 45 73 22 70 41 37 50 39 42 23 68 35 52 11 4 42 59 93 8 2 71 62 23 95 32 14 11 97 53 21 77 18 11 52 10 54 32 22 9 73 22 53 57 93 83 51 77 14 56 40 60 19 55 92 92 12 31 79 92 23 1 39 92 21 30 50 66 32 82 14 8 28 24 6 78 100 84 92 83 20 59 18 40 10 75 79 54 74 5 4 66 59 12 49 36 54 93 35 18 68 42 98 24 89 37 82 56 29]
